N = 10;
H = 6;
T = 2;

avail = array3d(1..N, 1..H, 1..T, [9, 1, 2, 8, 9, 5, 2, 5, 4, 0, 6, 10, 3, 2, 6, 8, 2, 2, 2, 7, 3, 4, 5, 8, 4, 9, 2, 3, 4, 6, 4, 9, 4, 1, 0, 8, 6, 10, 4, 4, 2, 5, 7, 0, 3, 6, 6, 2, 1, 8, 7, 8, 9, 7, 0, 4, 7, 10, 3, 5, 8, 8, 8, 5, 8, 5, 9, 9, 0, 1, 5, 2, 2, 6, 0, 6, 2, 8, 6, 5, 1, 5, 7, 2, 3, 7, 10, 8, 10, 6, 8, 7, 3, 6, 6, 4, 2, 9, 7, 2, 8, 10, 1, 7, 2, 10, 0, 3, 3, 7, 10, 10, 4, 6, 9, 10, 8, 0, 8, 7]);

r = array2d(1..H, 1..T, [0, 4, 5, 2, 2, 1, 6, 3, 2, 1, 3, 2]);
